WARNING: for repeatability, setting FPU to use double precision
============================[ Problem Statistics ]=============================
|                                                                             |
|  Number of variables:          5976                                         |
|  Number of clauses:           60588                                         |
|  Parse time:                   0.01 s                                       |
|                                                                             |
c ============================[ Search Statistics ]==============================
c | Conflicts |          ORIGINAL         |          LEARNT          | Progress |
c |           |    Vars  Clauses Literals |    Limit  Clauses Lit/Cl |          |
c ===============================================================================
c Switched to VSIDS.
c Switched to LRB.
c Switched to VSIDS.
c Switched to LRB.
c Switched to VSIDS.
c Switched to LRB.
c Switched to VSIDS.
c Switched to LRB.
c Switched to VSIDS.
c Switched to LRB.
c Switched to VSIDS.
c Switched to LRB.
c Switched to VSIDS.
c Switched to LRB.
c Switched to VSIDS.
c Switched to LRB.
c Switched to VSIDS.
c Switched to LRB.
c Switched to VSIDS.
c Switched to LRB.
c Switched to VSIDS.
c Switched to LRB.
c Switched to VSIDS.
c Switched to LRB.
c Switched to VSIDS.
c Switched to LRB.
c Switched to VSIDS.
c Switched to LRB.
c Switched to VSIDS.
c Switched to LRB.
c Switched to VSIDS.
c Switched to LRB.
c Switched to VSIDS.
c Switched to LRB.
c ===============================================================================
restarts                  : 118971
conflicts                 : 18612519       (5274 /sec)
decisions                 : 98277981       (0.00 % random) (27849 /sec)
propagations              : 8055256618     (2282633 /sec)
conflict literals         : 1704223396     (36.62 % deleted)

conflicts w/ DIP found    : 11736837       (63.06 % of conflicts)
conflicts w/ dangerous DIP: 0              (0.00 % of conflicts)
conflicts w/ DIP-learning : 154556         (0.83 % of conflicts)
decisions on ext vars     : 2827293        (2.88 % of decisions)
total ext vars            : 25715       
tried delete ext vars     : 8940        
deleted ext vars          : 8940        
max ext vars              : 16775       

Memory used               : 527.00 MB
CPU time                  : 3528.93 s
DIP computation time      : 139.839 s (3.96 % of total time)
ER_sel time               : 25.4064 s
ER_add time               : 0.09455 s
ER_delC time              : 0 s
ER_delV time              : 0.488653 s
ER_sub time               : 29.5492 s
ER_stat time              : 0 s

INDETERMINATE
